NAME          ClpDefau  FREE
ROWS
 N  OBJROW
 L  ZMUNI1_PCT
 L  ZMUNI2_PCT
 L  ZMUNI3_PCT
 L  ZMUNI4_PCT
 L  ZMUNI5_PCT
 L  ZMUNI6_PCT
 L  ZMUNI7_PCT
 L  ZMUNI8_PCT
 L  ZMUNI9_PCT
COLUMNS
    QMUNI1 OBJROW 1.          
    QMUNI1 ZMUNI1_PCT 27852.9167  
    QMUNI1 ZMUNI2_PCT 1596.2601   
    QMUNI1 ZMUNI3_PCT 4034.4238   
    QMUNI1 ZMUNI4_PCT 2909.06429  
    QMUNI1 ZMUNI5_PCT  -159.5497  
    QMUNI1 ZMUNI6_PCT 3.4332      
    QMUNI1 ZMUNI7_PCT 1262.2833   
    QMUNI1 ZMUNI8_PCT 933.8379    
    QMUNI1 ZMUNI9_PCT 162.3154    
    QMUNI2 OBJROW 1.          
    QMUNI2 ZMUNI1_PCT 1360.7979   
    QMUNI2 ZMUNI2_PCT 32866.1919  
    QMUNI2 ZMUNI3_PCT 2204.3228   
    QMUNI2 ZMUNI4_PCT 2387.71439  
    QMUNI2 ZMUNI5_PCT  -383.6632  
    QMUNI2 ZMUNI6_PCT  -340.8432  
    QMUNI2 ZMUNI7_PCT 346.5652    
    QMUNI2 ZMUNI8_PCT 624.2752    
    QMUNI2 ZMUNI9_PCT 606.3461    
    QMUNI3 OBJROW 1.          
    QMUNI3 ZMUNI1_PCT 3834.2476   
    QMUNI3 ZMUNI2_PCT 2383.1367   
    QMUNI3 ZMUNI3_PCT 29458.2367  
    QMUNI3 ZMUNI4_PCT 4788.61332  
    QMUNI3 ZMUNI5_PCT  -501.2512  
    QMUNI3 ZMUNI6_PCT  -335.3119  
    QMUNI3 ZMUNI7_PCT 893.7836    
    QMUNI3 ZMUNI8_PCT 875.8545    
    QMUNI3 ZMUNI9_PCT 276.3748    
    QMUNI4 OBJROW 1.          
    QMUNI4 ZMUNI1_PCT 3007.0305   
    QMUNI4 ZMUNI2_PCT 2766.037    
    QMUNI4 ZMUNI3_PCT 5225.563    
    QMUNI4 ZMUNI4_PCT 102787.19664
    QMUNI4 ZMUNI5_PCT  -257.9689  
    QMUNI4 ZMUNI6_PCT  -177.0973  
    QMUNI4 ZMUNI7_PCT 683.9752    
    QMUNI4 ZMUNI8_PCT 697.3266    
    QMUNI4 ZMUNI9_PCT 264.1678    
    QMUNI5 OBJROW 1.          
    QMUNI5 ZMUNI1_PCT  -303.6499  
    QMUNI5 ZMUNI2_PCT  -366.4971  
    QMUNI5 ZMUNI3_PCT  -326.7289  
    QMUNI5 ZMUNI4_PCT  -286.91292 
    QMUNI5 ZMUNI5_PCT 32603.3592  
    QMUNI5 ZMUNI6_PCT 2110.9581   
    QMUNI5 ZMUNI7_PCT  -588.7985  
    QMUNI5 ZMUNI8_PCT  -719.8334  
    QMUNI5 ZMUNI9_PCT  -784.4925  
    QMUNI6 OBJROW 1.          
    QMUNI6 ZMUNI1_PCT 260.9253    
    QMUNI6 ZMUNI2_PCT 62.0842     
    QMUNI6 ZMUNI3_PCT 184.6313    
    QMUNI6 ZMUNI4_PCT 142.83657   
    QMUNI6 ZMUNI5_PCT 2678.7758   
    QMUNI6 ZMUNI6_PCT 31189.4417  
    QMUNI6 ZMUNI7_PCT 278.6636    
    QMUNI6 ZMUNI8_PCT 3.0516999999
    QMUNI6 ZMUNI9_PCT  -197.2199  
    QMUNI7 OBJROW 1.          
    QMUNI7 ZMUNI1_PCT 1264.286    
    QMUNI7 ZMUNI2_PCT 678.1578    
    QMUNI7 ZMUNI3_PCT 1109.1232   
    QMUNI7 ZMUNI4_PCT 842.16595   
    QMUNI7 ZMUNI5_PCT  -55.5039   
    QMUNI7 ZMUNI6_PCT 138.9504    
    QMUNI7 ZMUNI7_PCT 28530.8838  
    QMUNI7 ZMUNI8_PCT 1912.8799   
    QMUNI7 ZMUNI9_PCT 331.6879    
    QMUNI8 OBJROW 1.          
    QMUNI8 ZMUNI1_PCT 711.9179    
    QMUNI8 ZMUNI2_PCT 613.0218    
    QMUNI8 ZMUNI3_PCT 768.6615    
    QMUNI8 ZMUNI4_PCT 582.43275   
    QMUNI8 ZMUNI5_PCT  -513.4583  
    QMUNI8 ZMUNI6_PCT  -429.1534  
    QMUNI8 ZMUNI7_PCT 1508.1406   
    QMUNI8 ZMUNI8_PCT 26487.3504  
    QMUNI8 ZMUNI9_PCT 486.7554    
    QMUNI9 OBJROW 1.          
    QMUNI9 ZMUNI1_PCT 596.8094    
    QMUNI9 ZMUNI2_PCT 903.7971    
    QMUNI9 ZMUNI3_PCT 705.3375    
    QMUNI9 ZMUNI4_PCT 608.61111   
    QMUNI9 ZMUNI5_PCT 236.2251    
    QMUNI9 ZMUNI6_PCT 269.0315    
    QMUNI9 ZMUNI7_PCT 743.866     
    QMUNI9 ZMUNI8_PCT 1235.3897   
    QMUNI9 ZMUNI9_PCT 25355.9112  
RHS
    RHS ZMUNI1_PCT 0.1717083315
    RHS ZMUNI2_PCT 0.1234027806
    RHS ZMUNI3_PCT 0.1612349874
    RHS ZMUNI4_PCT 0.0413391473
    RHS ZMUNI5_PCT 0.1990249557
    RHS ZMUNI6_PCT 0.3595263074
    RHS ZMUNI7_PCT 0.0355037027
    RHS ZMUNI8_PCT 0.0818407245
    RHS ZMUNI9_PCT 0.0550905823
BOUNDS
 LO BOUND QMUNI1 -0.001106664
 UP BOUND QMUNI1      1.1e+10
 LO BOUND QMUNI2 -0.000772128
 UP BOUND QMUNI2      1.1e+10
 LO BOUND QMUNI3 -0.000768624
 UP BOUND QMUNI3      1.1e+10
 LO BOUND QMUNI4 -0.00030652 
 UP BOUND QMUNI4      1.1e+10
 LO BOUND QMUNI5 -0.000601658
 UP BOUND QMUNI5      1.1e+10
 LO BOUND QMUNI6 -0.000787966
 UP BOUND QMUNI6      1.1e+10
 LO BOUND QMUNI7 -0.000360447
 UP BOUND QMUNI7      1.1e+10
 LO BOUND QMUNI8 -0.000491057
 UP BOUND QMUNI8      1.1e+10
 LO BOUND QMUNI9 -0.000627901
 UP BOUND QMUNI9      1.1e+10
ENDATA
